(set-info :smt-lib-version 2.6)
(set-logic QF_UFLRA)
(set-info :source |
MathSat group

|)
(set-info :category "random")
(set-info :status sat)
(declare-fun x0 () Real)
(declare-fun x1 () Real)
(declare-fun x2 () Real)
(declare-fun x3 () Real)
(declare-fun x4 () Real)
(declare-fun x5 () Real)
(declare-fun x6 () Real)
(declare-fun x7 () Real)
(declare-fun x8 () Real)
(declare-fun x9 () Real)
(declare-fun x10 () Real)
(declare-fun x11 () Real)
(declare-fun x12 () Real)
(declare-fun x13 () Real)
(declare-fun x14 () Real)
(declare-fun x15 () Real)
(declare-fun x16 () Real)
(declare-fun x17 () Real)
(declare-fun x18 () Real)
(declare-fun x19 () Real)
(declare-fun x20 () Real)
(declare-fun x21 () Real)
(declare-fun x22 () Real)
(declare-fun x23 () Real)
(declare-fun x24 () Real)
(declare-fun x25 () Real)
(declare-fun x26 () Real)
(declare-fun x27 () Real)
(declare-fun x28 () Real)
(declare-fun x29 () Real)
(declare-fun f0_1 (Real) Real)
(declare-fun f0_2 (Real Real) Real)
(declare-fun f0_3 (Real Real Real) Real)
(declare-fun f0_4 (Real Real Real Real) Real)
(declare-fun P0 () Bool)
(declare-fun P1 () Bool)
(declare-fun P2 () Bool)
(declare-fun P3 () Bool)
(declare-fun P4 () Bool)
(declare-fun P5 () Bool)
(declare-fun P6 () Bool)
(declare-fun P7 () Bool)
(declare-fun P8 () Bool)
(declare-fun P9 () Bool)
(declare-fun P10 () Bool)
(declare-fun P11 () Bool)
(declare-fun P12 () Bool)
(declare-fun P13 () Bool)
(declare-fun P14 () Bool)
(declare-fun P15 () Bool)
(declare-fun P16 () Bool)
(declare-fun P17 () Bool)
(declare-fun P18 () Bool)
(declare-fun P19 () Bool)
(declare-fun P20 () Bool)
(declare-fun P21 () Bool)
(declare-fun P22 () Bool)
(declare-fun P23 () Bool)
(declare-fun P24 () Bool)
(declare-fun P25 () Bool)
(declare-fun P26 () Bool)
(declare-fun P27 () Bool)
(declare-fun P28 () Bool)
(declare-fun P29 () Bool)
(assert (let ((?v_89 (<= (- (- (* 21 x18) (* 25 x1)) (* 7 x22)) 27)) (?v_54 (= (+ (- (* 17 x23) (* 27 x14)) (* 38 x14)) 22)) (?v_115 (< (+ (- (* 31 x5) (* 35 x19)) (* 7 x23)) 33)) (?v_111 (< (- (+ (* 31 x19) (* 41 x16)) (* 3 x18)) 42)) (?v_40 (* 6 x16))) (let ((?v_73 (< (- (+ (* 26 x10) (* 25 x15)) ?v_40) 41)) (?v_6 (* 19 x8)) (?v_16 (* 13 x23)) (?v_66 (<= (- (+ (* 25 x23) (* 38 x23)) (* 38 x27)) 28)) (?v_117 (= (- (- (* 35 x3) (* 19 x15)) (* 7 x16)) 8)) (?v_4 (f0_1 x15))) (let ((?v_8 (distinct ?v_4 x13)) (?v_52 (distinct (f0_2 x4 x21) x10)) (?v_131 (= (f0_2 x5 x18) x8)) (?v_90 (distinct x26 ?v_4)) (?v_44 (f0_1 x25))) (let ((?v_70 (distinct x7 ?v_44)) (?v_45 (f0_1 x19))) (let ((?v_143 (distinct ?v_45 x2)) (?v_1 (f0_1 x27))) (let ((?v_57 (distinct ?v_1 (f0_1 x2))) (?v_110 (distinct x7 ?v_4)) (?v_46 (= x21 (f0_2 x0 x22))) (?v_148 (= x10 x9)) (?v_109 (= x17 (f0_2 x5 x3))) (?v_97 (distinct x26 ?v_1)) (?v_17 (f0_1 x3))) (let ((?v_5 (distinct ?v_17 x2)) (?v_136 (distinct (f0_1 x11) x6)) (?v_84 (distinct (f0_1 x16) (f0_2 x4 x9))) (?v_123 (distinct (f0_2 x29 x6) x14)) (?v_80 (distinct (f0_2 x22 x25) (f0_1 x18))) (?v_139 (= (f0_2 x24 x16) x13)) (?v_12 (= x0 (f0_2 x17 x21))) (?v_59 (= (f0_2 x25 x13) ?v_45)) (?v_2 (f0_1 x13))) (let ((?v_11 (distinct x25 ?v_2)) (?v_105 (distinct (f0_2 x29 x8) ?v_2)) (?v_19 (distinct x17 x8)) (?v_82 (= (f0_2 x25 x4) x16)) (?v_25 (= (f0_2 x18 x27) (f0_1 x20))) (?v_28 (= (f0_1 x4) (f0_1 x21))) (?v_67 (distinct (f0_1 x17) (f0_2 x13 x8))) (?v_74 (distinct ?v_44 ?v_17)) (?v_36 (= (f0_1 x23) ?v_4)) (?v_140 (distinct (f0_2 x10 x11) (f0_2 x24 x11))) (?v_0 (not P4))) (let ((?v_9 (not ?v_25)) (?v_62 (not ?v_105)) (?v_68 (not ?v_11)) (?v_112 (not ?v_5)) (?v_61 (not P28)) (?v_14 (not P11)) (?v_86 (not P17)) (?v_92 (not ?v_8)) (?v_21 (not P26)) (?v_32 (not P27)) (?v_23 (not ?v_54)) (?v_34 (not P24)) (?v_121 (not ?v_12)) (?v_20 (not P7)) (?v_56 (not P19)) (?v_29 (not ?v_66)) (?v_48 (not ?v_74))) (let ((?v_156 (or ?v_29 ?v_48)) (?v_94 (not ?v_139)) (?v_127 (not P18)) (?v_31 (not ?v_143)) (?v_24 (not ?v_46)) (?v_47 (not ?v_19)) (?v_157 (not ?v_111)) (?v_42 (not ?v_28)) (?v_107 (not ?v_110)) (?v_142 (not P6)) (?v_102 (not P5)) (?v_83 (not ?v_84)) (?v_101 (not P3)) (?v_39 (not P16)) (?v_38 (not ?v_36)) (?v_76 (not P25)) (?v_49 (not P23)) (?v_58 (not ?v_70)) (?v_53 (not P9)) (?v_55 (not ?v_59)) (?v_104 (not P2)) (?v_77 (not P12)) (?v_119 (not P1)) (?v_91 (not ?v_57)) (?v_128 (not ?v_80)) (?v_137 (not P14)) (?v_64 (not ?v_90)) (?v_118 (not P10)) (?v_71 (not ?v_136)) (?v_103 (not ?v_67)) (?v_75 (not ?v_131)) (?v_133 (not P15)) (?v_152 (not ?v_148)) (?v_114 (not P13)) (?v_149 (not ?v_82)) (?v_108 (not P8)) (?v_116 (not P29)) (?v_99 (not ?v_109)) (?v_125 (not P20)) (?v_126 (not P22)) (?v_98 (not ?v_117)) (?v_113 (not P21)) (?v_132 (not ?v_123)) (?v_135 (not ?v_73)) (?v_124 (not ?v_52)) (?v_129 (not ?v_89)) (?v_147 (not ?v_97)) (?v_146 (not ?v_140)) (?v_10 (< (- (+ (* 22 x3) x23) (* 9 x22)) 7)) (?v_43 (< (- (+ (* 20 x12) (* 3 x14)) x19) 5)) (?v_85 (<= (+ (* 3 x3) (* 36 x6) (* 25 x27)) 0))) (let ((?v_69 (not ?v_43)) (?v_93 (not ?v_10)) (?v_106 (< (- (+ x22 (* 18 x7)) (* 30 x17)) 21)) (?v_130 (not ?v_85))) (let ((?v_151 (not ?v_106)) (?v_51 (< (- (- (* (- 8) x6) x25) (* 32 x5)) 20)) (?v_3 (< (- (- (* 6 x4) (* 2 x5)) (* 8 x2)) (- 27))) (?v_35 (< (+ (* (- 18) x22) (* 3 x4) (* 14 x28)) (- 19)))) (let ((?v_27 (not ?v_35)) (?v_78 (distinct (- (- (* (- 38) x8) (* 11 x18)) ?v_6) (- 17)))) (let ((?v_13 (not ?v_78)) (?v_15 (< (- (- (* (- 27) x21) (* 14 x1)) (* 14 x5)) (- 34)))) (let ((?v_26 (not ?v_15)) (?v_33 (< (+ (* (- 42) x6) (* 13 x7) (* 4 x14)) 27)) (?v_7 (<= (+ (* 22 x26) (* 24 x17)) (- 3))) (?v_63 (<= (+ (* (- 13) x25) ?v_6 ?v_16) 12))) (let ((?v_154 (not ?v_7)) (?v_18 (<= (+ (* 28 x1) (* 20 x13) (* 19 x6)) (- 37))) (?v_79 (< (- (+ (* (- 32) x24) (* 22 x25)) (* 2 x8)) 4))) (let ((?v_60 (not ?v_79)) (?v_65 (not ?v_3)) (?v_37 (<= (- (- (* 36 x16) (* 28 x13)) (* 29 x5)) (- 44))) (?v_138 (<= (- (+ (* 28 x24) (* 25 x9)) (* 42 x13)) (- 41)))) (let ((?v_72 (not ?v_138)) (?v_30 (distinct (- (- (* (- 7) x2) (* 34 x23)) ?v_16) (- 24)))) (let ((?v_134 (not ?v_30)) (?v_22 (<= (- (* 39 x27) (* 5 x21)) (- 6))) (?v_81 (= (+ (* (- 39) x9) x5 (* 11 x13)) (- 17))) (?v_122 (not ?v_33)) (?v_95 (not ?v_37)) (?v_87 (< (+ (- (* (- 14) x8) (* 12 x1)) (* 14 x6)) (- 1))) (?v_41 (< (- (+ (* (- 18) x18) ?v_40) (* 18 x29)) 21))) (let ((?v_50 (not ?v_41)) (?v_155 (or ?v_7 ?v_59)) (?v_88 (not ?v_63)) (?v_96 (<= (+ (* 37 x22) (* 15 x15)) (- 17))) (?v_100 (not ?v_81)) (?v_153 (not ?v_22)) (?v_144 (not ?v_87)) (?v_120 (not ?v_18)) (?v_145 (< (+ (- (* (- 39) x25) (* 35 x8)) (* 29 x1)) (- 1)))) (let ((?v_141 (not ?v_145)) (?v_150 (not ?v_51))) (and (and (and (and (and (and (and (and (and (and (and (and (and (and (and (and (and (and (and (and (and (and (and (and (and (and (and (and (and (and (and (and (and (and (and (and (and (and (and (and (and (and (and (and (and (and (and (and (and (and (and (and (and (and (and (and (and (and (and (and (and (and (and (and (and (and (and (and (and (and (and (and (and (and (and (and (and (and (and (and (and (and (and (and (and (and (and (and (and (and (and (and (and (and (and (and (and (and (and (and (and (and (and (and (and (and (and (and (and (and (and (and (and (and (and (and (and (and (and (and (and (and (and (and (and (and (and (and (and (and (and (and (and (and (and (and (and (and (and (and (and (and (and (and (and (and (and (and (and (and (and (and (and (and (and (and (and (and (and (and (and (and (and (and (and (and (and (and (and (and (and (and (and (and (and (and (and (and (and (and (and (and (and (and (and (and (and (and (and (and (and (and (and (and (and (and (and (and (and (and (and (and (and (and (and (and (and (and (and (and (and (and (and (and (and (and (and (and (and (and (and (and (and (and (and (and (and (and (and (and (and (and (and (and (and (and (and (and (and (and (and (and (and (and (and (and (and (and (and (and (and (and (and (and (and (and (and (and (and (and (and (and (and (and (and (and (and (and (and (and (and (and (and (and (and (and (and (and (and (and (and (and (and (and (and (and (and (and (and (and (and (and (and (and (and (and (and (and (and (and (and (and (and (and (and (and (and (and (and (and (and (and (and (and (and (and (and (and (and (and (and (and (and (and (and (and (and (and (and (and (and (and (and (and (and (and (and (and (and (and (and (and (and (and (and (and (and (and (and (and (and (and (and (and (and (and (and (and (and (or (or ?v_51 ?v_8) ?v_0) (or (or P13 P5) ?v_19)) (or (or ?v_3 ?v_9) ?v_27)) (or (or ?v_57 P9) ?v_13)) (or (or ?v_26 P13) ?v_62)) (or (or ?v_0 ?v_97) ?v_68)) (or (or ?v_3 ?v_5) ?v_12)) (or (or ?v_36 ?v_112) P26)) (or (or ?v_61 ?v_10) ?v_73)) (or (or ?v_33 ?v_7) ?v_63)) (or (or ?v_14 ?v_154) ?v_86)) (or (or ?v_92 ?v_9) ?v_21)) (or (or ?v_32 ?v_10) ?v_23)) (or (or ?v_34 ?v_11) P6)) (or (or ?v_18 P12) ?v_121)) (or (or P9 ?v_8) ?v_52)) (or (or P25 ?v_20) ?v_13)) (or (or ?v_60 P17) ?v_65)) (or (or ?v_37 P29) ?v_56)) (or (or ?v_14 ?v_43) P7)) (or (or ?v_72 ?v_15) ?v_12)) (or (or ?v_134 P16) P0)) (or ?v_156 ?v_18)) (or (or ?v_19 ?v_20) ?v_22)) (or (or ?v_21 ?v_94) ?v_127)) (or (or ?v_31 ?v_24) ?v_22)) (or (or ?v_47 P10) ?v_23)) (or (or ?v_22 ?v_157) ?v_24)) (or (or ?v_28 ?v_89) ?v_82)) (or (or ?v_25 ?v_81) ?v_26)) (or (or P16 ?v_27) ?v_85)) (or (or P2 ?v_42) ?v_107)) (or (or ?v_29 ?v_30) ?v_3)) (or (or ?v_142 P21) P22)) (or (or ?v_23 ?v_31) ?v_102)) (or (or ?v_83 (not ?v_115)) ?v_32)) (or (or ?v_101 ?v_18) ?v_39)) (or (or ?v_122 ?v_34) ?v_35)) (or (or ?v_38 ?v_95) P16)) (or (or ?v_18 ?v_87) ?v_27)) (or (or ?v_38 ?v_28) ?v_76)) (or (or ?v_39 ?v_41) P19)) (or (or P14 ?v_50) ?v_27)) (or (or ?v_49 ?v_42) ?v_69)) (or (or ?v_58 P27) ?v_53)) (or (or ?v_55 ?v_46) ?v_27)) (or (or P25 ?v_47) ?v_3)) (or (or ?v_48 ?v_49) ?v_50)) (or (or P14 ?v_51) ?v_52)) (or (or ?v_104 P27) ?v_53)) (or (or ?v_49 ?v_54) ?v_55)) (or (or ?v_56 ?v_67) ?v_77)) (or (or ?v_119 ?v_91) ?v_58)) (or ?v_155 ?v_60)) (or (or ?v_61 ?v_128) ?v_137)) (or (or ?v_29 ?v_15) ?v_62)) (or (or ?v_64 ?v_61) P21)) (or (or P17 ?v_118) ?v_88)) (or (or P3 ?v_14) ?v_42)) (or (or ?v_64 P15) ?v_71)) (or (or ?v_33 P21) P12)) (or (or ?v_65 P5) ?v_66)) (or (or ?v_103 ?v_42) ?v_68)) (or (or P28 ?v_69) ?v_70)) (or (or ?v_71 ?v_72) P13)) (or (or P12 ?v_0) ?v_73)) (or (or ?v_75 ?v_74) ?v_96)) (or (or ?v_133 P14) ?v_0)) (or (or ?v_34 ?v_35) ?v_75)) (or (or ?v_76 ?v_62) ?v_55)) (or (or P20 ?v_63) ?v_8)) (or (or ?v_25 ?v_77) ?v_51)) (or (or ?v_39 P27) P17)) (or (or ?v_39 ?v_53) ?v_15)) (or (or ?v_78 ?v_79) ?v_9)) (or (or ?v_59 ?v_64) ?v_69)) (or (or P19 ?v_31) ?v_70)) (or (or ?v_22 ?v_80) ?v_25)) (or (or ?v_93 ?v_19) ?v_43)) (or (or ?v_100 P3) P5)) (or (or ?v_152 ?v_51) ?v_114)) (or (or ?v_149 P2) ?v_108)) (or (or P2 P22) ?v_83)) (or (or ?v_76 ?v_61) P11)) (or (or ?v_72 ?v_84) ?v_85)) (or (or ?v_24 ?v_64) ?v_86)) (or (or ?v_19 ?v_0) ?v_116)) (or (or ?v_99 ?v_87) ?v_5)) (or (or ?v_88 ?v_106) ?v_22)) (or (or ?v_89 P1) ?v_90)) (or (or ?v_153 ?v_72) ?v_125)) (or (or ?v_68 ?v_68) ?v_91)) (or (or (not P0) ?v_92) ?v_93)) (or (or P15 P9) ?v_60)) (or (or ?v_26 ?v_94) ?v_126)) (or (or ?v_98 ?v_95) ?v_15)) (or (or ?v_96 ?v_27) P23)) (or (or ?v_97 P15) ?v_42)) (or (or ?v_98 P22) ?v_88)) (or (or ?v_99 P7) ?v_10)) (or (or ?v_72 ?v_64) ?v_0)) (or (or P29 ?v_100) ?v_93)) (or (or ?v_47 P24) ?v_81)) (or (or ?v_43 P18) ?v_22)) (or (or P22 P7) P10)) (or (or ?v_101 ?v_86) P29)) (or (or ?v_63 ?v_102) ?v_90)) (or (or ?v_28 ?v_46) ?v_92)) (or (or ?v_103 ?v_103) P28)) (or (or P4 ?v_104) ?v_51)) (or (or ?v_105 ?v_69) P6)) (or (or ?v_78 P18) ?v_75)) (or (or ?v_106 ?v_96) ?v_101)) (or (or ?v_55 ?v_144) ?v_12)) (or (or P17 ?v_76) P2)) (or (or ?v_107 ?v_92) ?v_9)) (or (or ?v_27 ?v_106) ?v_104)) (or (or ?v_83 ?v_97) P3)) (or (or ?v_75 ?v_103) ?v_18)) (or (or ?v_3 ?v_59) ?v_108)) (or (or ?v_3 ?v_109) ?v_110)) (or (or ?v_41 ?v_107) P17)) (or (or P17 ?v_93) ?v_13)) (or (or ?v_50 ?v_36) P19)) (or (or ?v_113 P17) ?v_58)) (or (or P1 ?v_92) ?v_101)) (or (or ?v_111 ?v_24) ?v_70)) (or (or P6 ?v_112) ?v_100)) (or (or ?v_99 ?v_72) ?v_132)) (or (or P15 ?v_92) ?v_113)) (or (or P22 ?v_57) ?v_32)) (or (or P8 ?v_135) ?v_66)) (or (or P15 ?v_114) ?v_115)) (or (or P1 ?v_37) ?v_59)) (or (or ?v_81 ?v_48) ?v_31)) (or (or P16 ?v_87) ?v_11)) (or (or ?v_124 ?v_105) P29)) (or (or P3 ?v_116) ?v_54)) (or (or ?v_79 P19) ?v_71)) (or (or ?v_13 P14) ?v_33)) (or (or P21 ?v_117) ?v_120)) (or (or P20 ?v_91) ?v_107)) (or (or ?v_141 ?v_34) ?v_8)) (or (or ?v_99 P13) P7)) (or (or P14 ?v_111) ?v_34)) (or (or ?v_118 ?v_3) ?v_26)) (or (or ?v_119 ?v_9) ?v_102)) (or (or ?v_9 ?v_5) ?v_92)) (or (or P26 ?v_93) ?v_64)) (or (or ?v_50 ?v_120) ?v_72)) (or (or ?v_115 ?v_129) ?v_121)) (or (or ?v_43 P15) ?v_110)) (or (or ?v_14 ?v_42) ?v_71)) (or (or P26 ?v_84) ?v_81)) (or (or ?v_15 ?v_122) P0)) (or (or ?v_14 ?v_11) ?v_8)) (or (or ?v_123 ?v_51) ?v_29)) (or (or ?v_124 ?v_125) ?v_81)) (or (or ?v_126 ?v_49) ?v_130)) (or (or ?v_46 ?v_113) P13)) (or (or ?v_35 ?v_13) ?v_59)) (or (or ?v_88 ?v_127) ?v_54)) (or (or P24 ?v_38) P29)) (or (or P18 ?v_116) ?v_147)) (or (or ?v_11 ?v_119) ?v_79)) (or (or P4 ?v_124) ?v_30)) (or (or ?v_128 ?v_69) ?v_67)) (or (or ?v_0 ?v_33) ?v_12)) (or (or ?v_129 ?v_56) ?v_49)) (or (or ?v_99 ?v_111) ?v_49)) (or (or ?v_83 ?v_130) ?v_47)) (or (or ?v_131 ?v_124) ?v_103)) (or (or ?v_132 P26) ?v_58)) (or (or P25 ?v_88) ?v_133)) (or (or ?v_118 ?v_111) ?v_98)) (or (or ?v_86 ?v_130) ?v_12)) (or (or ?v_48 ?v_85) ?v_146)) (or (or ?v_3 P12) ?v_113)) (or (or P5 ?v_15) ?v_47)) (or (or ?v_58 ?v_100) ?v_42)) (or (or ?v_104 ?v_126) ?v_8)) (or (or P8 ?v_73) ?v_107)) (or (or ?v_134 ?v_127) ?v_63)) (or (or ?v_39 ?v_24) ?v_108)) (or (or ?v_126 ?v_80) P12)) (or (or ?v_135 ?v_85) ?v_110)) (or (or P28 ?v_115) ?v_86)) (or (or ?v_102 ?v_136) ?v_20)) (or (or ?v_100 ?v_129) ?v_41)) (or (or ?v_39 P20) ?v_136)) (or (or ?v_85 ?v_137) ?v_138)) (or (or P1 ?v_77) ?v_103)) (or (or ?v_15 ?v_69) ?v_42)) (or (or ?v_71 ?v_97) ?v_139)) (or (or P18 ?v_81) ?v_140)) (or (or ?v_110 ?v_75) ?v_134)) (or (or ?v_112 ?v_46) P6)) (or (or ?v_67 ?v_126) ?v_73)) (or (or ?v_52 ?v_0) ?v_107)) (or (or ?v_55 ?v_89) ?v_12)) (or (or P8 ?v_23) ?v_136)) (or (or ?v_13 ?v_139) ?v_21)) (or (or ?v_92 P14) P23)) (or (or ?v_24 ?v_137) P21)) (or (or ?v_76 P20) ?v_83)) (or (or ?v_69 ?v_68) ?v_75)) (or (or ?v_95 ?v_141) ?v_26)) (or (or ?v_90 ?v_142) P26)) (or (or ?v_80 ?v_91) ?v_120)) (or (or ?v_135 ?v_86) ?v_68)) (or (or ?v_143 ?v_50) ?v_80)) (or (or ?v_42 ?v_150) ?v_116)) (or (or ?v_15 ?v_111) ?v_47)) (or (or ?v_139 ?v_30) P14)) (or (or ?v_78 ?v_129) ?v_141)) (or (or ?v_124 P14) P12)) (or (or ?v_144 ?v_70) ?v_127)) (or (or ?v_13 ?v_116) ?v_119)) (or (or ?v_97 ?v_49) P11)) (or (or ?v_15 ?v_8) ?v_13)) (or (or ?v_124 ?v_145) ?v_136)) (or (or P9 ?v_108) ?v_33)) (or (or ?v_47 ?v_50) ?v_51)) (or (or ?v_129 P28) ?v_41)) (or (or P13 ?v_26) ?v_60)) (or (or P25 ?v_38) ?v_112)) (or (or ?v_91 ?v_101) ?v_146)) (or (or ?v_52 ?v_114) ?v_113)) (or (or ?v_0 ?v_24) ?v_63)) (or (or ?v_86 P25) ?v_15)) (or (or ?v_22 ?v_56) ?v_43)) (or (or ?v_127 P21) ?v_75)) (or (or ?v_7 P4) ?v_120)) (or (or ?v_83 ?v_23) ?v_13)) (or (or P29 ?v_80) ?v_5)) (or (or P0 ?v_141) ?v_53)) (or (or ?v_65 ?v_82) ?v_38)) (or (or ?v_77 ?v_95) ?v_128)) (or (or ?v_147 ?v_27) ?v_92)) (or (or ?v_68 ?v_42) ?v_73)) (or (or P2 ?v_43) ?v_124)) (or (or P28 ?v_49) P7)) (or (or ?v_117 P4) ?v_21)) (or (or ?v_39 ?v_57) ?v_120)) (or (or ?v_151 ?v_0) ?v_127)) (or (or ?v_148 ?v_3) ?v_149)) (or (or ?v_49 ?v_50) ?v_148)) (or (or ?v_80 ?v_52) P5)) (or (or ?v_47 ?v_72) P28)) (or (or ?v_114 ?v_47) ?v_134)) (or (or ?v_123 ?v_81) ?v_139)) (or (or P0 ?v_126) ?v_138)) (or (or ?v_19 P7) ?v_70)) (or (or P12 P11) ?v_87)) (or (or ?v_26 ?v_79) ?v_27)) (or (or ?v_79 ?v_19) ?v_74)) (or (or ?v_113 ?v_66) ?v_132)) (or (or ?v_76 ?v_47) ?v_122)) (or (or ?v_7 ?v_28) ?v_41)) (or (or ?v_48 ?v_112) ?v_106)) (or (or ?v_87 ?v_12) ?v_149)) (or (or ?v_143 ?v_30) P6)) (or (or ?v_120 ?v_83) ?v_134)) (or (or ?v_25 ?v_138) P9)) (or (or ?v_131 P4) ?v_111)) (or (or ?v_93 ?v_41) ?v_53)) (or (or ?v_30 ?v_13) ?v_85)) (or (or ?v_10 ?v_104) ?v_87)) (or (or ?v_66 ?v_30) P5)) (or (or ?v_106 ?v_32) ?v_146)) (or (or P19 ?v_134) ?v_54)) (or (or ?v_3 (not ?v_96)) ?v_86)) (or (or ?v_123 P18) ?v_35)) (or (or ?v_100 ?v_20) ?v_15)) (or (or ?v_128 ?v_13) ?v_94)) (or (or ?v_89 ?v_112) ?v_104)) (or (or P3 ?v_85) ?v_13)) (or (or ?v_131 P29) ?v_150)) (or (or ?v_43 ?v_103) P29)) (or (or ?v_23 ?v_108) ?v_9)) (or (or ?v_62 ?v_98) ?v_148)) (or (or ?v_9 ?v_150) ?v_151)) (or (or P2 ?v_130) ?v_78)) (or (or ?v_83 ?v_135) ?v_111)) (or (or ?v_53 ?v_53) ?v_135)) (or (or ?v_119 ?v_22) ?v_120)) (or (or ?v_152 ?v_78) ?v_88)) (or (or ?v_28 P15) ?v_8)) (or (or ?v_58 ?v_28) ?v_68)) (or (or ?v_153 P16) ?v_81)) (or (or ?v_82 ?v_38) ?v_71)) (or (or ?v_105 ?v_151) ?v_68)) (or (or ?v_151 ?v_68) ?v_73)) (or (or P21 ?v_78) P18)) (or (or ?v_88 P8) ?v_118)) (or (or ?v_140 ?v_91) ?v_83)) (or (or ?v_87 P8) ?v_68)) (or (or ?v_42 P12) ?v_125)) (or (or P20 ?v_5) ?v_123)) (or (or ?v_3 ?v_154) ?v_15)) (or (or ?v_57 ?v_115) ?v_119)) (or (or ?v_142 ?v_61) ?v_56)) (or (or ?v_37 ?v_135) ?v_33)) (or (or ?v_82 ?v_148) ?v_135)) (or (or ?v_100 ?v_95) ?v_68)) (or (or P5 ?v_54) ?v_52)) (or (or ?v_59 P5) ?v_72)) (or (or P13 ?v_3) ?v_127)) (or (or ?v_35 ?v_153) ?v_143)) (or (or ?v_138 ?v_73) ?v_148)) (or (or ?v_12 ?v_115) ?v_100)) (or (or P23 P17) ?v_104)) (or (or P21 ?v_92) ?v_122)) (or (or P12 ?v_123) P29)) (or (or ?v_79 ?v_55) P29)) (or (or ?v_65 ?v_34) ?v_43)) (or (or P0 ?v_10) ?v_105)) (or (or ?v_41 ?v_102) ?v_29)) (or (or ?v_150 ?v_3) ?v_14)) (or (or ?v_103 ?v_97) ?v_43)) (or (or ?v_121 P15) ?v_60)) (or (or ?v_94 ?v_21) ?v_100)) (or (or ?v_0 ?v_95) P14)) (or (or ?v_41 ?v_100) ?v_74)) (or (or ?v_111 ?v_88) ?v_8)) (or (or ?v_21 P2) ?v_73)) (or (or ?v_100 ?v_152) ?v_64)) (or (or ?v_56 ?v_93) ?v_132)) (or (or ?v_76 ?v_0) ?v_143)) (or (or ?v_105 P3) ?v_128)) (or (or ?v_33 ?v_21) ?v_139)) (or (or ?v_26 ?v_117) ?v_63)) (or (or P4 ?v_47) ?v_130)) (or (or ?v_13 ?v_149) ?v_8)) (or ?v_155 ?v_153)) (or (or ?v_98 ?v_125) ?v_83)) (or (or P7 ?v_38) ?v_21)) (or (or ?v_133 ?v_139) ?v_151)) (or (or P13 ?v_86) ?v_93)) (or (or ?v_149 ?v_97) ?v_89)) (or (or P13 ?v_92) ?v_108)) (or (or ?v_30 P18) ?v_95)) (or ?v_156 P6)) (or (or ?v_83 P2) ?v_144)) (or (or ?v_142 ?v_140) ?v_22)) (or (or P13 ?v_68) ?v_88)) (or (or ?v_19 ?v_109) P6)) (or (or ?v_74 ?v_56) ?v_20)) (or (or ?v_116 ?v_95) ?v_81)) (or (or ?v_152 ?v_37) ?v_60)) (or (or ?v_31 ?v_139) P20)) (or (or ?v_143 ?v_84) ?v_144)) (or (or ?v_149 P25) ?v_142)) (or (or ?v_36 ?v_81) ?v_150)) (or (or ?v_153 ?v_76) ?v_56)) (or (or ?v_43 ?v_68) ?v_21)) (or (or ?v_94 ?v_18) ?v_111)) (or (or P3 ?v_27) ?v_48)) (or (or P7 ?v_157) ?v_140)) (or (or ?v_51 ?v_24) ?v_130))))))))))))))))))))))))
(check-sat)
(exit)
